NAME : instance_4
COMMENT : Converted from simplified format
TYPE : CVRP
DIMENSION : 10
EDGE_WEIGHT_TYPE : EUC_2D
CAPACITY : 20
NODE_COORD_SECTION
1 0 0
2 43 89
3 73 7
4 46 15
5 79 82
6 47 89
7 42 94
8 88 7
9 89 96
10 57 19
DEMAND_SECTION
1 0
2 5
3 6
4 9
5 3
6 1
7 4
8 4
9 2
10 6
DEPOT_SECTION
1
EOF
